c n orig vars 88
p cnf 310 924
89 -1 0
89 -2 0
-89 1 2 0
90 -3 0
90 -4 0
-90 3 4 0
91 -5 0
91 -6 0
-91 5 6 0
92 -7 0
92 -8 0
-92 7 8 0
93 -9 0
93 -10 0
-93 9 10 0
94 -11 0
94 -12 0
-94 11 12 0
95 -13 0
95 -14 0
-95 13 14 0
96 -15 0
96 -16 0
-96 15 16 0
97 -17 0
97 -18 0
-97 17 18 0
98 -19 0
98 -20 0
-98 19 20 0
99 -21 0
99 -22 0
-99 21 22 0
100 -23 0
100 -24 0
-100 23 24 0
101 -25 0
101 -26 0
-101 25 26 0
102 -27 0
102 -28 0
-102 27 28 0
103 -29 0
103 -30 0
-103 29 30 0
104 -31 0
104 -32 0
-104 31 32 0
-105 89 0
-105 90 0
-105 91 0
-105 92 0
-105 93 0
-105 94 0
-105 95 0
-105 96 0
-105 97 0
-105 98 0
-105 99 0
-105 100 0
-105 101 0
-105 102 0
-105 103 0
-105 104 0
105 -89 -90 -91 -92 -93 -94 -95 -96 -97 -98 -99 -100 -101 -102 -103 -104 0
-105 0
106 -33 0
106 -41 0
106 -49 0
106 -57 0
106 -65 0
106 -73 0
106 -81 0
-106 33 41 49 57 65 73 81 0
107 -34 0
107 -42 0
107 -50 0
107 -58 0
107 -66 0
107 -74 0
107 -82 0
-107 34 42 50 58 66 74 82 0
108 -35 0
108 -43 0
108 -51 0
108 -59 0
108 -67 0
108 -75 0
108 -83 0
-108 35 43 51 59 67 75 83 0
109 -36 0
109 -44 0
109 -52 0
109 -60 0
109 -68 0
109 -76 0
109 -84 0
-109 36 44 52 60 68 76 84 0
110 -37 0
110 -45 0
110 -53 0
110 -61 0
110 -69 0
110 -77 0
110 -85 0
-110 37 45 53 61 69 77 85 0
111 -38 0
111 -46 0
111 -54 0
111 -62 0
111 -70 0
111 -78 0
111 -86 0
-111 38 46 54 62 70 78 86 0
112 -39 0
112 -47 0
112 -55 0
112 -63 0
112 -71 0
112 -79 0
112 -87 0
-112 39 47 55 63 71 79 87 0
113 -40 0
113 -48 0
113 -56 0
113 -64 0
113 -72 0
113 -80 0
113 -88 0
-113 40 48 56 64 72 80 88 0
114 33 0
114 34 0
-114 -33 -34 0
115 33 0
115 35 0
-115 -33 -35 0
116 33 0
116 36 0
-116 -33 -36 0
117 33 0
117 37 0
-117 -33 -37 0
118 33 0
118 38 0
-118 -33 -38 0
119 33 0
119 39 0
-119 -33 -39 0
120 33 0
120 40 0
-120 -33 -40 0
121 34 0
121 35 0
-121 -34 -35 0
122 34 0
122 36 0
-122 -34 -36 0
123 34 0
123 37 0
-123 -34 -37 0
124 34 0
124 38 0
-124 -34 -38 0
125 34 0
125 39 0
-125 -34 -39 0
126 34 0
126 40 0
-126 -34 -40 0
127 35 0
127 36 0
-127 -35 -36 0
128 35 0
128 37 0
-128 -35 -37 0
129 35 0
129 38 0
-129 -35 -38 0
130 35 0
130 39 0
-130 -35 -39 0
131 35 0
131 40 0
-131 -35 -40 0
132 36 0
132 37 0
-132 -36 -37 0
133 36 0
133 38 0
-133 -36 -38 0
134 36 0
134 39 0
-134 -36 -39 0
135 36 0
135 40 0
-135 -36 -40 0
136 37 0
136 38 0
-136 -37 -38 0
137 37 0
137 39 0
-137 -37 -39 0
138 37 0
138 40 0
-138 -37 -40 0
139 38 0
139 39 0
-139 -38 -39 0
140 38 0
140 40 0
-140 -38 -40 0
141 39 0
141 40 0
-141 -39 -40 0
142 41 0
142 42 0
-142 -41 -42 0
143 41 0
143 43 0
-143 -41 -43 0
144 41 0
144 44 0
-144 -41 -44 0
145 41 0
145 45 0
-145 -41 -45 0
146 41 0
146 46 0
-146 -41 -46 0
147 41 0
147 47 0
-147 -41 -47 0
148 41 0
148 48 0
-148 -41 -48 0
149 42 0
149 43 0
-149 -42 -43 0
150 42 0
150 44 0
-150 -42 -44 0
151 42 0
151 45 0
-151 -42 -45 0
152 42 0
152 46 0
-152 -42 -46 0
153 42 0
153 47 0
-153 -42 -47 0
154 42 0
154 48 0
-154 -42 -48 0
155 43 0
155 44 0
-155 -43 -44 0
156 43 0
156 45 0
-156 -43 -45 0
157 43 0
157 46 0
-157 -43 -46 0
158 43 0
158 47 0
-158 -43 -47 0
159 43 0
159 48 0
-159 -43 -48 0
160 44 0
160 45 0
-160 -44 -45 0
161 44 0
161 46 0
-161 -44 -46 0
162 44 0
162 47 0
-162 -44 -47 0
163 44 0
163 48 0
-163 -44 -48 0
164 45 0
164 46 0
-164 -45 -46 0
165 45 0
165 47 0
-165 -45 -47 0
166 45 0
166 48 0
-166 -45 -48 0
167 46 0
167 47 0
-167 -46 -47 0
168 46 0
168 48 0
-168 -46 -48 0
169 47 0
169 48 0
-169 -47 -48 0
170 49 0
170 50 0
-170 -49 -50 0
171 49 0
171 51 0
-171 -49 -51 0
172 49 0
172 52 0
-172 -49 -52 0
173 49 0
173 53 0
-173 -49 -53 0
174 49 0
174 54 0
-174 -49 -54 0
175 49 0
175 55 0
-175 -49 -55 0
176 49 0
176 56 0
-176 -49 -56 0
177 50 0
177 51 0
-177 -50 -51 0
178 50 0
178 52 0
-178 -50 -52 0
179 50 0
179 53 0
-179 -50 -53 0
180 50 0
180 54 0
-180 -50 -54 0
181 50 0
181 55 0
-181 -50 -55 0
182 50 0
182 56 0
-182 -50 -56 0
183 51 0
183 52 0
-183 -51 -52 0
184 51 0
184 53 0
-184 -51 -53 0
185 51 0
185 54 0
-185 -51 -54 0
186 51 0
186 55 0
-186 -51 -55 0
187 51 0
187 56 0
-187 -51 -56 0
188 52 0
188 53 0
-188 -52 -53 0
189 52 0
189 54 0
-189 -52 -54 0
190 52 0
190 55 0
-190 -52 -55 0
191 52 0
191 56 0
-191 -52 -56 0
192 53 0
192 54 0
-192 -53 -54 0
193 53 0
193 55 0
-193 -53 -55 0
194 53 0
194 56 0
-194 -53 -56 0
195 54 0
195 55 0
-195 -54 -55 0
196 54 0
196 56 0
-196 -54 -56 0
197 55 0
197 56 0
-197 -55 -56 0
198 57 0
198 58 0
-198 -57 -58 0
199 57 0
199 59 0
-199 -57 -59 0
200 57 0
200 60 0
-200 -57 -60 0
201 57 0
201 61 0
-201 -57 -61 0
202 57 0
202 62 0
-202 -57 -62 0
203 57 0
203 63 0
-203 -57 -63 0
204 57 0
204 64 0
-204 -57 -64 0
205 58 0
205 59 0
-205 -58 -59 0
206 58 0
206 60 0
-206 -58 -60 0
207 58 0
207 61 0
-207 -58 -61 0
208 58 0
208 62 0
-208 -58 -62 0
209 58 0
209 63 0
-209 -58 -63 0
210 58 0
210 64 0
-210 -58 -64 0
211 59 0
211 60 0
-211 -59 -60 0
212 59 0
212 61 0
-212 -59 -61 0
213 59 0
213 62 0
-213 -59 -62 0
214 59 0
214 63 0
-214 -59 -63 0
215 59 0
215 64 0
-215 -59 -64 0
216 60 0
216 61 0
-216 -60 -61 0
217 60 0
217 62 0
-217 -60 -62 0
218 60 0
218 63 0
-218 -60 -63 0
219 60 0
219 64 0
-219 -60 -64 0
220 61 0
220 62 0
-220 -61 -62 0
221 61 0
221 63 0
-221 -61 -63 0
222 61 0
222 64 0
-222 -61 -64 0
223 62 0
223 63 0
-223 -62 -63 0
224 62 0
224 64 0
-224 -62 -64 0
225 63 0
225 64 0
-225 -63 -64 0
226 65 0
226 66 0
-226 -65 -66 0
227 65 0
227 67 0
-227 -65 -67 0
228 65 0
228 68 0
-228 -65 -68 0
229 65 0
229 69 0
-229 -65 -69 0
230 65 0
230 70 0
-230 -65 -70 0
231 65 0
231 71 0
-231 -65 -71 0
232 65 0
232 72 0
-232 -65 -72 0
233 66 0
233 67 0
-233 -66 -67 0
234 66 0
234 68 0
-234 -66 -68 0
235 66 0
235 69 0
-235 -66 -69 0
236 66 0
236 70 0
-236 -66 -70 0
237 66 0
237 71 0
-237 -66 -71 0
238 66 0
238 72 0
-238 -66 -72 0
239 67 0
239 68 0
-239 -67 -68 0
240 67 0
240 69 0
-240 -67 -69 0
241 67 0
241 70 0
-241 -67 -70 0
242 67 0
242 71 0
-242 -67 -71 0
243 67 0
243 72 0
-243 -67 -72 0
244 68 0
244 69 0
-244 -68 -69 0
245 68 0
245 70 0
-245 -68 -70 0
246 68 0
246 71 0
-246 -68 -71 0
247 68 0
247 72 0
-247 -68 -72 0
248 69 0
248 70 0
-248 -69 -70 0
249 69 0
249 71 0
-249 -69 -71 0
250 69 0
250 72 0
-250 -69 -72 0
251 70 0
251 71 0
-251 -70 -71 0
252 70 0
252 72 0
-252 -70 -72 0
253 71 0
253 72 0
-253 -71 -72 0
254 73 0
254 74 0
-254 -73 -74 0
255 73 0
255 75 0
-255 -73 -75 0
256 73 0
256 76 0
-256 -73 -76 0
257 73 0
257 77 0
-257 -73 -77 0
258 73 0
258 78 0
-258 -73 -78 0
259 73 0
259 79 0
-259 -73 -79 0
260 73 0
260 80 0
-260 -73 -80 0
261 74 0
261 75 0
-261 -74 -75 0
262 74 0
262 76 0
-262 -74 -76 0
263 74 0
263 77 0
-263 -74 -77 0
264 74 0
264 78 0
-264 -74 -78 0
265 74 0
265 79 0
-265 -74 -79 0
266 74 0
266 80 0
-266 -74 -80 0
267 75 0
267 76 0
-267 -75 -76 0
268 75 0
268 77 0
-268 -75 -77 0
269 75 0
269 78 0
-269 -75 -78 0
270 75 0
270 79 0
-270 -75 -79 0
271 75 0
271 80 0
-271 -75 -80 0
272 76 0
272 77 0
-272 -76 -77 0
273 76 0
273 78 0
-273 -76 -78 0
274 76 0
274 79 0
-274 -76 -79 0
275 76 0
275 80 0
-275 -76 -80 0
276 77 0
276 78 0
-276 -77 -78 0
277 77 0
277 79 0
-277 -77 -79 0
278 77 0
278 80 0
-278 -77 -80 0
279 78 0
279 79 0
-279 -78 -79 0
280 78 0
280 80 0
-280 -78 -80 0
281 79 0
281 80 0
-281 -79 -80 0
282 81 0
282 82 0
-282 -81 -82 0
283 81 0
283 83 0
-283 -81 -83 0
284 81 0
284 84 0
-284 -81 -84 0
285 81 0
285 85 0
-285 -81 -85 0
286 81 0
286 86 0
-286 -81 -86 0
287 81 0
287 87 0
-287 -81 -87 0
288 81 0
288 88 0
-288 -81 -88 0
289 82 0
289 83 0
-289 -82 -83 0
290 82 0
290 84 0
-290 -82 -84 0
291 82 0
291 85 0
-291 -82 -85 0
292 82 0
292 86 0
-292 -82 -86 0
293 82 0
293 87 0
-293 -82 -87 0
294 82 0
294 88 0
-294 -82 -88 0
295 83 0
295 84 0
-295 -83 -84 0
296 83 0
296 85 0
-296 -83 -85 0
297 83 0
297 86 0
-297 -83 -86 0
298 83 0
298 87 0
-298 -83 -87 0
299 83 0
299 88 0
-299 -83 -88 0
300 84 0
300 85 0
-300 -84 -85 0
301 84 0
301 86 0
-301 -84 -86 0
302 84 0
302 87 0
-302 -84 -87 0
303 84 0
303 88 0
-303 -84 -88 0
304 85 0
304 86 0
-304 -85 -86 0
305 85 0
305 87 0
-305 -85 -87 0
306 85 0
306 88 0
-306 -85 -88 0
307 86 0
307 87 0
-307 -86 -87 0
308 86 0
308 88 0
-308 -86 -88 0
309 87 0
309 88 0
-309 -87 -88 0
-310 106 0
-310 107 0
-310 108 0
-310 109 0
-310 110 0
-310 111 0
-310 112 0
-310 113 0
-310 114 0
-310 115 0
-310 116 0
-310 117 0
-310 118 0
-310 119 0
-310 120 0
-310 121 0
-310 122 0
-310 123 0
-310 124 0
-310 125 0
-310 126 0
-310 127 0
-310 128 0
-310 129 0
-310 130 0
-310 131 0
-310 132 0
-310 133 0
-310 134 0
-310 135 0
-310 136 0
-310 137 0
-310 138 0
-310 139 0
-310 140 0
-310 141 0
-310 142 0
-310 143 0
-310 144 0
-310 145 0
-310 146 0
-310 147 0
-310 148 0
-310 149 0
-310 150 0
-310 151 0
-310 152 0
-310 153 0
-310 154 0
-310 155 0
-310 156 0
-310 157 0
-310 158 0
-310 159 0
-310 160 0
-310 161 0
-310 162 0
-310 163 0
-310 164 0
-310 165 0
-310 166 0
-310 167 0
-310 168 0
-310 169 0
-310 170 0
-310 171 0
-310 172 0
-310 173 0
-310 174 0
-310 175 0
-310 176 0
-310 177 0
-310 178 0
-310 179 0
-310 180 0
-310 181 0
-310 182 0
-310 183 0
-310 184 0
-310 185 0
-310 186 0
-310 187 0
-310 188 0
-310 189 0
-310 190 0
-310 191 0
-310 192 0
-310 193 0
-310 194 0
-310 195 0
-310 196 0
-310 197 0
-310 198 0
-310 199 0
-310 200 0
-310 201 0
-310 202 0
-310 203 0
-310 204 0
-310 205 0
-310 206 0
-310 207 0
-310 208 0
-310 209 0
-310 210 0
-310 211 0
-310 212 0
-310 213 0
-310 214 0
-310 215 0
-310 216 0
-310 217 0
-310 218 0
-310 219 0
-310 220 0
-310 221 0
-310 222 0
-310 223 0
-310 224 0
-310 225 0
-310 226 0
-310 227 0
-310 228 0
-310 229 0
-310 230 0
-310 231 0
-310 232 0
-310 233 0
-310 234 0
-310 235 0
-310 236 0
-310 237 0
-310 238 0
-310 239 0
-310 240 0
-310 241 0
-310 242 0
-310 243 0
-310 244 0
-310 245 0
-310 246 0
-310 247 0
-310 248 0
-310 249 0
-310 250 0
-310 251 0
-310 252 0
-310 253 0
-310 254 0
-310 255 0
-310 256 0
-310 257 0
-310 258 0
-310 259 0
-310 260 0
-310 261 0
-310 262 0
-310 263 0
-310 264 0
-310 265 0
-310 266 0
-310 267 0
-310 268 0
-310 269 0
-310 270 0
-310 271 0
-310 272 0
-310 273 0
-310 274 0
-310 275 0
-310 276 0
-310 277 0
-310 278 0
-310 279 0
-310 280 0
-310 281 0
-310 282 0
-310 283 0
-310 284 0
-310 285 0
-310 286 0
-310 287 0
-310 288 0
-310 289 0
-310 290 0
-310 291 0
-310 292 0
-310 293 0
-310 294 0
-310 295 0
-310 296 0
-310 297 0
-310 298 0
-310 299 0
-310 300 0
-310 301 0
-310 302 0
-310 303 0
-310 304 0
-310 305 0
-310 306 0
-310 307 0
-310 308 0
-310 309 0
310 -106 -107 -108 -109 -110 -111 -112 -113 -114 -115 -116 -117 -118 -119 -120 -121 -122 -123 -124 -125 -126 -127 -128 -129 -130 -131 -132 -133 -134 -135 -136 -137 -138 -139 -140 -141 -142 -143 -144 -145 -146 -147 -148 -149 -150 -151 -152 -153 -154 -155 -156 -157 -158 -159 -160 -161 -162 -163 -164 -165 -166 -167 -168 -169 -170 -171 -172 -173 -174 -175 -176 -177 -178 -179 -180 -181 -182 -183 -184 -185 -186 -187 -188 -189 -190 -191 -192 -193 -194 -195 -196 -197 -198 -199 -200 -201 -202 -203 -204 -205 -206 -207 -208 -209 -210 -211 -212 -213 -214 -215 -216 -217 -218 -219 -220 -221 -222 -223 -224 -225 -226 -227 -228 -229 -230 -231 -232 -233 -234 -235 -236 -237 -238 -239 -240 -241 -242 -243 -244 -245 -246 -247 -248 -249 -250 -251 -252 -253 -254 -255 -256 -257 -258 -259 -260 -261 -262 -263 -264 -265 -266 -267 -268 -269 -270 -271 -272 -273 -274 -275 -276 -277 -278 -279 -280 -281 -282 -283 -284 -285 -286 -287 -288 -289 -290 -291 -292 -293 -294 -295 -296 -297 -298 -299 -300 -301 -302 -303 -304 -305 -306 -307 -308 -309 0
-310 0
